5 5
6 3 1 5 4 20 2 8 4 2 16 4 17 1 10 3 4 5 3 9 4 13 1 14 2 13 5 3 1 5 5 2 1 6 4 6 4 5 15 4 19 2 19 3 19
5 1 4 16 5 3 2 1 20 4 4 2 7 5 4 3 1 3 4 7 2 8 4 1 3 5 4 4 6 3 19 3 4 16 2 2 1 4
7 2 3 3 1 16 3 2 7 5 20 4 5 1 4 10 4 1 17 3 11 2 8 4 19 2 1 20 2 4 2 2 12 3 20 2 5 13 3 15
4 2 5 3 3 11 5 3 20 5 15 4 18 2 13 1 17 2 5 18 1 17 3 3 14 2 16 1 16
8 5 2 14 5 2 3 18 1 20 4 16 5 3 10 5 7 4 2 1 9 2 5 3 3 17 2 15 1 11 4 4 15 3 20 5 4 1 15 1 3 10 3 1 10 4 15 3 8 3 4 6 2 9 1 4 5 2 4 5 3 3 10 4 15 1 18